certificates/rado_a30_c22_N287.cnf
c Rad2 upper bound instance: x1 + 30*x2 - x3 = 22, interval [1,287]
p cnf 287 2880
1 9 0
-1 -9 0
1 2 39 0
-1 -2 -39 0
1 3 69 0
-1 -3 -69 0
1 4 99 0
-1 -4 -99 0
1 5 129 0
-1 -5 -129 0
1 6 159 0
-1 -6 -159 0
1 7 189 0
-1 -7 -189 0
1 8 219 0
-1 -8 -219 0
1 9 249 0
-1 -9 -249 0
1 10 279 0
-1 -10 -279 0
1 2 10 0
-1 -2 -10 0
2 40 0
-2 -40 0
2 3 70 0
-2 -3 -70 0
2 4 100 0
-2 -4 -100 0
2 5 130 0
-2 -5 -130 0
2 6 160 0
-2 -6 -160 0
2 7 190 0
-2 -7 -190 0
2 8 220 0
-2 -8 -220 0
2 9 250 0
-2 -9 -250 0
2 10 280 0
-2 -10 -280 0
1 3 11 0
-1 -3 -11 0
2 3 41 0
-2 -3 -41 0
3 71 0
-3 -71 0
3 4 101 0
-3 -4 -101 0
3 5 131 0
-3 -5 -131 0
3 6 161 0
-3 -6 -161 0
3 7 191 0
-3 -7 -191 0
3 8 221 0
-3 -8 -221 0
3 9 251 0
-3 -9 -251 0
3 10 281 0
-3 -10 -281 0
1 4 12 0
-1 -4 -12 0
2 4 42 0
-2 -4 -42 0
3 4 72 0
-3 -4 -72 0
4 102 0
-4 -102 0
4 5 132 0
-4 -5 -132 0
4 6 162 0
-4 -6 -162 0
4 7 192 0
-4 -7 -192 0
4 8 222 0
-4 -8 -222 0
4 9 252 0
-4 -9 -252 0
4 10 282 0
-4 -10 -282 0
1 5 13 0
-1 -5 -13 0
2 5 43 0
-2 -5 -43 0
3 5 73 0
-3 -5 -73 0
4 5 103 0
-4 -5 -103 0
5 133 0
-5 -133 0
5 6 163 0
-5 -6 -163 0
5 7 193 0
-5 -7 -193 0
5 8 223 0
-5 -8 -223 0
5 9 253 0
-5 -9 -253 0
5 10 283 0
-5 -10 -283 0
1 6 14 0
-1 -6 -14 0
2 6 44 0
-2 -6 -44 0
3 6 74 0
-3 -6 -74 0
4 6 104 0
-4 -6 -104 0
5 6 134 0
-5 -6 -134 0
6 164 0
-6 -164 0
6 7 194 0
-6 -7 -194 0
6 8 224 0
-6 -8 -224 0
6 9 254 0
-6 -9 -254 0
6 10 284 0
-6 -10 -284 0
1 7 15 0
-1 -7 -15 0
2 7 45 0
-2 -7 -45 0
3 7 75 0
-3 -7 -75 0
4 7 105 0
-4 -7 -105 0
5 7 135 0
-5 -7 -135 0
6 7 165 0
-6 -7 -165 0
7 195 0
-7 -195 0
7 8 225 0
-7 -8 -225 0
7 9 255 0
-7 -9 -255 0
7 10 285 0
-7 -10 -285 0
1 8 16 0
-1 -8 -16 0
2 8 46 0
-2 -8 -46 0
3 8 76 0
-3 -8 -76 0
4 8 106 0
-4 -8 -106 0
5 8 136 0
-5 -8 -136 0
6 8 166 0
-6 -8 -166 0
7 8 196 0
-7 -8 -196 0
8 226 0
-8 -226 0
8 9 256 0
-8 -9 -256 0
8 10 286 0
-8 -10 -286 0
1 9 17 0
-1 -9 -17 0
2 9 47 0
-2 -9 -47 0
3 9 77 0
-3 -9 -77 0
4 9 107 0
-4 -9 -107 0
5 9 137 0
-5 -9 -137 0
6 9 167 0
-6 -9 -167 0
7 9 197 0
-7 -9 -197 0
8 9 227 0
-8 -9 -227 0
9 257 0
-9 -257 0
9 10 287 0
-9 -10 -287 0
1 10 18 0
-1 -10 -18 0
2 10 48 0
-2 -10 -48 0
3 10 78 0
-3 -10 -78 0
4 10 108 0
-4 -10 -108 0
5 10 138 0
-5 -10 -138 0
6 10 168 0
-6 -10 -168 0
7 10 198 0
-7 -10 -198 0
8 10 228 0
-8 -10 -228 0
9 10 258 0
-9 -10 -258 0
1 11 19 0
-1 -11 -19 0
2 11 49 0
-2 -11 -49 0
3 11 79 0
-3 -11 -79 0
4 11 109 0
-4 -11 -109 0
5 11 139 0
-5 -11 -139 0
6 11 169 0
-6 -11 -169 0
7 11 199 0
-7 -11 -199 0
8 11 229 0
-8 -11 -229 0
9 11 259 0
-9 -11 -259 0
1 12 20 0
-1 -12 -20 0
2 12 50 0
-2 -12 -50 0
3 12 80 0
-3 -12 -80 0
4 12 110 0
-4 -12 -110 0
5 12 140 0
-5 -12 -140 0
6 12 170 0
-6 -12 -170 0
7 12 200 0
-7 -12 -200 0
8 12 230 0
-8 -12 -230 0
9 12 260 0
-9 -12 -260 0
1 13 21 0
-1 -13 -21 0
2 13 51 0
-2 -13 -51 0
3 13 81 0
-3 -13 -81 0
4 13 111 0
-4 -13 -111 0
5 13 141 0
-5 -13 -141 0
6 13 171 0
-6 -13 -171 0
7 13 201 0
-7 -13 -201 0
8 13 231 0
-8 -13 -231 0
9 13 261 0
-9 -13 -261 0
1 14 22 0
-1 -14 -22 0
2 14 52 0
-2 -14 -52 0
3 14 82 0
-3 -14 -82 0
4 14 112 0
-4 -14 -112 0
5 14 142 0
-5 -14 -142 0
6 14 172 0
-6 -14 -172 0
7 14 202 0
-7 -14 -202 0
8 14 232 0
-8 -14 -232 0
9 14 262 0
-9 -14 -262 0
1 15 23 0
-1 -15 -23 0
2 15 53 0
-2 -15 -53 0
3 15 83 0
-3 -15 -83 0
4 15 113 0
-4 -15 -113 0
5 15 143 0
-5 -15 -143 0
6 15 173 0
-6 -15 -173 0
7 15 203 0
-7 -15 -203 0
8 15 233 0
-8 -15 -233 0
9 15 263 0
-9 -15 -263 0
1 16 24 0
-1 -16 -24 0
2 16 54 0
-2 -16 -54 0
3 16 84 0
-3 -16 -84 0
4 16 114 0
-4 -16 -114 0
5 16 144 0
-5 -16 -144 0
6 16 174 0
-6 -16 -174 0
7 16 204 0
-7 -16 -204 0
8 16 234 0
-8 -16 -234 0
9 16 264 0
-9 -16 -264 0
1 17 25 0
-1 -17 -25 0
2 17 55 0
-2 -17 -55 0
3 17 85 0
-3 -17 -85 0
4 17 115 0
-4 -17 -115 0
5 17 145 0
-5 -17 -145 0
6 17 175 0
-6 -17 -175 0
7 17 205 0
-7 -17 -205 0
8 17 235 0
-8 -17 -235 0
9 17 265 0
-9 -17 -265 0
1 18 26 0
-1 -18 -26 0
2 18 56 0
-2 -18 -56 0
3 18 86 0
-3 -18 -86 0
4 18 116 0
-4 -18 -116 0
5 18 146 0
-5 -18 -146 0
6 18 176 0
-6 -18 -176 0
7 18 206 0
-7 -18 -206 0
8 18 236 0
-8 -18 -236 0
9 18 266 0
-9 -18 -266 0
1 19 27 0
-1 -19 -27 0
2 19 57 0
-2 -19 -57 0
3 19 87 0
-3 -19 -87 0
4 19 117 0
-4 -19 -117 0
5 19 147 0
-5 -19 -147 0
6 19 177 0
-6 -19 -177 0
7 19 207 0
-7 -19 -207 0
8 19 237 0
-8 -19 -237 0
9 19 267 0
-9 -19 -267 0
1 20 28 0
-1 -20 -28 0
2 20 58 0
-2 -20 -58 0
3 20 88 0
-3 -20 -88 0
4 20 118 0
-4 -20 -118 0
5 20 148 0
-5 -20 -148 0
6 20 178 0
-6 -20 -178 0
7 20 208 0
-7 -20 -208 0
8 20 238 0
-8 -20 -238 0
9 20 268 0
-9 -20 -268 0
1 21 29 0
-1 -21 -29 0
2 21 59 0
-2 -21 -59 0
3 21 89 0
-3 -21 -89 0
4 21 119 0
-4 -21 -119 0
5 21 149 0
-5 -21 -149 0
6 21 179 0
-6 -21 -179 0
7 21 209 0
-7 -21 -209 0
8 21 239 0
-8 -21 -239 0
9 21 269 0
-9 -21 -269 0
1 22 30 0
-1 -22 -30 0
2 22 60 0
-2 -22 -60 0
3 22 90 0
-3 -22 -90 0
4 22 120 0
-4 -22 -120 0
5 22 150 0
-5 -22 -150 0
6 22 180 0
-6 -22 -180 0
7 22 210 0
-7 -22 -210 0
8 22 240 0
-8 -22 -240 0
9 22 270 0
-9 -22 -270 0
1 23 31 0
-1 -23 -31 0
2 23 61 0
-2 -23 -61 0
3 23 91 0
-3 -23 -91 0
4 23 121 0
-4 -23 -121 0
5 23 151 0
-5 -23 -151 0
6 23 181 0
-6 -23 -181 0
7 23 211 0
-7 -23 -211 0
8 23 241 0
-8 -23 -241 0
9 23 271 0
-9 -23 -271 0
1 24 32 0
-1 -24 -32 0
2 24 62 0
-2 -24 -62 0
3 24 92 0
-3 -24 -92 0
4 24 122 0
-4 -24 -122 0
5 24 152 0
-5 -24 -152 0
6 24 182 0
-6 -24 -182 0
7 24 212 0
-7 -24 -212 0
8 24 242 0
-8 -24 -242 0
9 24 272 0
-9 -24 -272 0
1 25 33 0
-1 -25 -33 0
2 25 63 0
-2 -25 -63 0
3 25 93 0
-3 -25 -93 0
4 25 123 0
-4 -25 -123 0
5 25 153 0
-5 -25 -153 0
6 25 183 0
-6 -25 -183 0
7 25 213 0
-7 -25 -213 0
8 25 243 0
-8 -25 -243 0
9 25 273 0
-9 -25 -273 0
1 26 34 0
-1 -26 -34 0
2 26 64 0
-2 -26 -64 0
3 26 94 0
-3 -26 -94 0
4 26 124 0
-4 -26 -124 0
5 26 154 0
-5 -26 -154 0
6 26 184 0
-6 -26 -184 0
7 26 214 0
-7 -26 -214 0
8 26 244 0
-8 -26 -244 0
9 26 274 0
-9 -26 -274 0
1 27 35 0
-1 -27 -35 0
2 27 65 0
-2 -27 -65 0
3 27 95 0
-3 -27 -95 0
4 27 125 0
-4 -27 -125 0
5 27 155 0
-5 -27 -155 0
6 27 185 0
-6 -27 -185 0
7 27 215 0
-7 -27 -215 0
8 27 245 0
-8 -27 -245 0
9 27 275 0
-9 -27 -275 0
1 28 36 0
-1 -28 -36 0
2 28 66 0
-2 -28 -66 0
3 28 96 0
-3 -28 -96 0
4 28 126 0
-4 -28 -126 0
5 28 156 0
-5 -28 -156 0
6 28 186 0
-6 -28 -186 0
7 28 216 0
-7 -28 -216 0
8 28 246 0
-8 -28 -246 0
9 28 276 0
-9 -28 -276 0
1 29 37 0
-1 -29 -37 0
2 29 67 0
-2 -29 -67 0
3 29 97 0
-3 -29 -97 0
4 29 127 0
-4 -29 -127 0
5 29 157 0
-5 -29 -157 0
6 29 187 0
-6 -29 -187 0
7 29 217 0
-7 -29 -217 0
8 29 247 0
-8 -29 -247 0
9 29 277 0
-9 -29 -277 0
1 30 38 0
-1 -30 -38 0
2 30 68 0
-2 -30 -68 0
3 30 98 0
-3 -30 -98 0
4 30 128 0
-4 -30 -128 0
5 30 158 0
-5 -30 -158 0
6 30 188 0
-6 -30 -188 0
7 30 218 0
-7 -30 -218 0
8 30 248 0
-8 -30 -248 0
9 30 278 0
-9 -30 -278 0
1 31 39 0
-1 -31 -39 0
2 31 69 0
-2 -31 -69 0
3 31 99 0
-3 -31 -99 0
4 31 129 0
-4 -31 -129 0
5 31 159 0
-5 -31 -159 0
6 31 189 0
-6 -31 -189 0
7 31 219 0
-7 -31 -219 0
8 31 249 0
-8 -31 -249 0
9 31 279 0
-9 -31 -279 0
1 32 40 0
-1 -32 -40 0
2 32 70 0
-2 -32 -70 0
3 32 100 0
-3 -32 -100 0
4 32 130 0
-4 -32 -130 0
5 32 160 0
-5 -32 -160 0
6 32 190 0
-6 -32 -190 0
7 32 220 0
-7 -32 -220 0
8 32 250 0
-8 -32 -250 0
9 32 280 0
-9 -32 -280 0
1 33 41 0
-1 -33 -41 0
2 33 71 0
-2 -33 -71 0
3 33 101 0
-3 -33 -101 0
4 33 131 0
-4 -33 -131 0
5 33 161 0
-5 -33 -161 0
6 33 191 0
-6 -33 -191 0
7 33 221 0
-7 -33 -221 0
8 33 251 0
-8 -33 -251 0
9 33 281 0
-9 -33 -281 0
1 34 42 0
-1 -34 -42 0
2 34 72 0
-2 -34 -72 0
3 34 102 0
-3 -34 -102 0
4 34 132 0
-4 -34 -132 0
5 34 162 0
-5 -34 -162 0
6 34 192 0
-6 -34 -192 0
7 34 222 0
-7 -34 -222 0
8 34 252 0
-8 -34 -252 0
9 34 282 0
-9 -34 -282 0
1 35 43 0
-1 -35 -43 0
2 35 73 0
-2 -35 -73 0
3 35 103 0
-3 -35 -103 0
4 35 133 0
-4 -35 -133 0
5 35 163 0
-5 -35 -163 0
6 35 193 0
-6 -35 -193 0
7 35 223 0
-7 -35 -223 0
8 35 253 0
-8 -35 -253 0
9 35 283 0
-9 -35 -283 0
1 36 44 0
-1 -36 -44 0
2 36 74 0
-2 -36 -74 0
3 36 104 0
-3 -36 -104 0
4 36 134 0
-4 -36 -134 0
5 36 164 0
-5 -36 -164 0
6 36 194 0
-6 -36 -194 0
7 36 224 0
-7 -36 -224 0
8 36 254 0
-8 -36 -254 0
9 36 284 0
-9 -36 -284 0
1 37 45 0
-1 -37 -45 0
2 37 75 0
-2 -37 -75 0
3 37 105 0
-3 -37 -105 0
4 37 135 0
-4 -37 -135 0
5 37 165 0
-5 -37 -165 0
6 37 195 0
-6 -37 -195 0
7 37 225 0
-7 -37 -225 0
8 37 255 0
-8 -37 -255 0
9 37 285 0
-9 -37 -285 0
1 38 46 0
-1 -38 -46 0
2 38 76 0
-2 -38 -76 0
3 38 106 0
-3 -38 -106 0
4 38 136 0
-4 -38 -136 0
5 38 166 0
-5 -38 -166 0
6 38 196 0
-6 -38 -196 0
7 38 226 0
-7 -38 -226 0
8 38 256 0
-8 -38 -256 0
9 38 286 0
-9 -38 -286 0
1 39 47 0
-1 -39 -47 0
2 39 77 0
-2 -39 -77 0
3 39 107 0
-3 -39 -107 0
4 39 137 0
-4 -39 -137 0
5 39 167 0
-5 -39 -167 0
6 39 197 0
-6 -39 -197 0
7 39 227 0
-7 -39 -227 0
8 39 257 0
-8 -39 -257 0
9 39 287 0
-9 -39 -287 0
1 40 48 0
-1 -40 -48 0
2 40 78 0
-2 -40 -78 0
3 40 108 0
-3 -40 -108 0
4 40 138 0
-4 -40 -138 0
5 40 168 0
-5 -40 -168 0
6 40 198 0
-6 -40 -198 0
7 40 228 0
-7 -40 -228 0
8 40 258 0
-8 -40 -258 0
1 41 49 0
-1 -41 -49 0
2 41 79 0
-2 -41 -79 0
3 41 109 0
-3 -41 -109 0
4 41 139 0
-4 -41 -139 0
5 41 169 0
-5 -41 -169 0
6 41 199 0
-6 -41 -199 0
7 41 229 0
-7 -41 -229 0
8 41 259 0
-8 -41 -259 0
1 42 50 0
-1 -42 -50 0
2 42 80 0
-2 -42 -80 0
3 42 110 0
-3 -42 -110 0
4 42 140 0
-4 -42 -140 0
5 42 170 0
-5 -42 -170 0
6 42 200 0
-6 -42 -200 0
7 42 230 0
-7 -42 -230 0
8 42 260 0
-8 -42 -260 0
1 43 51 0
-1 -43 -51 0
2 43 81 0
-2 -43 -81 0
3 43 111 0
-3 -43 -111 0
4 43 141 0
-4 -43 -141 0
5 43 171 0
-5 -43 -171 0
6 43 201 0
-6 -43 -201 0
7 43 231 0
-7 -43 -231 0
8 43 261 0
-8 -43 -261 0
1 44 52 0
-1 -44 -52 0
2 44 82 0
-2 -44 -82 0
3 44 112 0
-3 -44 -112 0
4 44 142 0
-4 -44 -142 0
5 44 172 0
-5 -44 -172 0
6 44 202 0
-6 -44 -202 0
7 44 232 0
-7 -44 -232 0
8 44 262 0
-8 -44 -262 0
1 45 53 0
-1 -45 -53 0
2 45 83 0
-2 -45 -83 0
3 45 113 0
-3 -45 -113 0
4 45 143 0
-4 -45 -143 0
5 45 173 0
-5 -45 -173 0
6 45 203 0
-6 -45 -203 0
7 45 233 0
-7 -45 -233 0
8 45 263 0
-8 -45 -263 0
1 46 54 0
-1 -46 -54 0
2 46 84 0
-2 -46 -84 0
3 46 114 0
-3 -46 -114 0
4 46 144 0
-4 -46 -144 0
5 46 174 0
-5 -46 -174 0
6 46 204 0
-6 -46 -204 0
7 46 234 0
-7 -46 -234 0
8 46 264 0
-8 -46 -264 0
1 47 55 0
-1 -47 -55 0
2 47 85 0
-2 -47 -85 0
3 47 115 0
-3 -47 -115 0
4 47 145 0
-4 -47 -145 0
5 47 175 0
-5 -47 -175 0
6 47 205 0
-6 -47 -205 0
7 47 235 0
-7 -47 -235 0
8 47 265 0
-8 -47 -265 0
1 48 56 0
-1 -48 -56 0
2 48 86 0
-2 -48 -86 0
3 48 116 0
-3 -48 -116 0
4 48 146 0
-4 -48 -146 0
5 48 176 0
-5 -48 -176 0
6 48 206 0
-6 -48 -206 0
7 48 236 0
-7 -48 -236 0
8 48 266 0
-8 -48 -266 0
1 49 57 0
-1 -49 -57 0
2 49 87 0
-2 -49 -87 0
3 49 117 0
-3 -49 -117 0
4 49 147 0
-4 -49 -147 0
5 49 177 0
-5 -49 -177 0
6 49 207 0
-6 -49 -207 0
7 49 237 0
-7 -49 -237 0
8 49 267 0
-8 -49 -267 0
1 50 58 0
-1 -50 -58 0
2 50 88 0
-2 -50 -88 0
3 50 118 0
-3 -50 -118 0
4 50 148 0
-4 -50 -148 0
5 50 178 0
-5 -50 -178 0
6 50 208 0
-6 -50 -208 0
7 50 238 0
-7 -50 -238 0
8 50 268 0
-8 -50 -268 0
1 51 59 0
-1 -51 -59 0
2 51 89 0
-2 -51 -89 0
3 51 119 0
-3 -51 -119 0
4 51 149 0
-4 -51 -149 0
5 51 179 0
-5 -51 -179 0
6 51 209 0
-6 -51 -209 0
7 51 239 0
-7 -51 -239 0
8 51 269 0
-8 -51 -269 0
1 52 60 0
-1 -52 -60 0
2 52 90 0
-2 -52 -90 0
3 52 120 0
-3 -52 -120 0
4 52 150 0
-4 -52 -150 0
5 52 180 0
-5 -52 -180 0
6 52 210 0
-6 -52 -210 0
7 52 240 0
-7 -52 -240 0
8 52 270 0
-8 -52 -270 0
1 53 61 0
-1 -53 -61 0
2 53 91 0
-2 -53 -91 0
3 53 121 0
-3 -53 -121 0
4 53 151 0
-4 -53 -151 0
5 53 181 0
-5 -53 -181 0
6 53 211 0
-6 -53 -211 0
7 53 241 0
-7 -53 -241 0
8 53 271 0
-8 -53 -271 0
1 54 62 0
-1 -54 -62 0
2 54 92 0
-2 -54 -92 0
3 54 122 0
-3 -54 -122 0
4 54 152 0
-4 -54 -152 0
5 54 182 0
-5 -54 -182 0
6 54 212 0
-6 -54 -212 0
7 54 242 0
-7 -54 -242 0
8 54 272 0
-8 -54 -272 0
1 55 63 0
-1 -55 -63 0
2 55 93 0
-2 -55 -93 0
3 55 123 0
-3 -55 -123 0
4 55 153 0
-4 -55 -153 0
5 55 183 0
-5 -55 -183 0
6 55 213 0
-6 -55 -213 0
7 55 243 0
-7 -55 -243 0
8 55 273 0
-8 -55 -273 0
1 56 64 0
-1 -56 -64 0
2 56 94 0
-2 -56 -94 0
3 56 124 0
-3 -56 -124 0
4 56 154 0
-4 -56 -154 0
5 56 184 0
-5 -56 -184 0
6 56 214 0
-6 -56 -214 0
7 56 244 0
-7 -56 -244 0
8 56 274 0
-8 -56 -274 0
1 57 65 0
-1 -57 -65 0
2 57 95 0
-2 -57 -95 0
3 57 125 0
-3 -57 -125 0
4 57 155 0
-4 -57 -155 0
5 57 185 0
-5 -57 -185 0
6 57 215 0
-6 -57 -215 0
7 57 245 0
-7 -57 -245 0
8 57 275 0
-8 -57 -275 0
1 58 66 0
-1 -58 -66 0
2 58 96 0
-2 -58 -96 0
3 58 126 0
-3 -58 -126 0
4 58 156 0
-4 -58 -156 0
5 58 186 0
-5 -58 -186 0
6 58 216 0
-6 -58 -216 0
7 58 246 0
-7 -58 -246 0
8 58 276 0
-8 -58 -276 0
1 59 67 0
-1 -59 -67 0
2 59 97 0
-2 -59 -97 0
3 59 127 0
-3 -59 -127 0
4 59 157 0
-4 -59 -157 0
5 59 187 0
-5 -59 -187 0
6 59 217 0
-6 -59 -217 0
7 59 247 0
-7 -59 -247 0
8 59 277 0
-8 -59 -277 0
1 60 68 0
-1 -60 -68 0
2 60 98 0
-2 -60 -98 0
3 60 128 0
-3 -60 -128 0
4 60 158 0
-4 -60 -158 0
5 60 188 0
-5 -60 -188 0
6 60 218 0
-6 -60 -218 0
7 60 248 0
-7 -60 -248 0
8 60 278 0
-8 -60 -278 0
1 61 69 0
-1 -61 -69 0
2 61 99 0
-2 -61 -99 0
3 61 129 0
-3 -61 -129 0
4 61 159 0
-4 -61 -159 0
5 61 189 0
-5 -61 -189 0
6 61 219 0
-6 -61 -219 0
7 61 249 0
-7 -61 -249 0
8 61 279 0
-8 -61 -279 0
1 62 70 0
-1 -62 -70 0
2 62 100 0
-2 -62 -100 0
3 62 130 0
-3 -62 -130 0
4 62 160 0
-4 -62 -160 0
5 62 190 0
-5 -62 -190 0
6 62 220 0
-6 -62 -220 0
7 62 250 0
-7 -62 -250 0
8 62 280 0
-8 -62 -280 0
1 63 71 0
-1 -63 -71 0
2 63 101 0
-2 -63 -101 0
3 63 131 0
-3 -63 -131 0
4 63 161 0
-4 -63 -161 0
5 63 191 0
-5 -63 -191 0
6 63 221 0
-6 -63 -221 0
7 63 251 0
-7 -63 -251 0
8 63 281 0
-8 -63 -281 0
1 64 72 0
-1 -64 -72 0
2 64 102 0
-2 -64 -102 0
3 64 132 0
-3 -64 -132 0
4 64 162 0
-4 -64 -162 0
5 64 192 0
-5 -64 -192 0
6 64 222 0
-6 -64 -222 0
7 64 252 0
-7 -64 -252 0
8 64 282 0
-8 -64 -282 0
1 65 73 0
-1 -65 -73 0
2 65 103 0
-2 -65 -103 0
3 65 133 0
-3 -65 -133 0
4 65 163 0
-4 -65 -163 0
5 65 193 0
-5 -65 -193 0
6 65 223 0
-6 -65 -223 0
7 65 253 0
-7 -65 -253 0
8 65 283 0
-8 -65 -283 0
1 66 74 0
-1 -66 -74 0
2 66 104 0
-2 -66 -104 0
3 66 134 0
-3 -66 -134 0
4 66 164 0
-4 -66 -164 0
5 66 194 0
-5 -66 -194 0
6 66 224 0
-6 -66 -224 0
7 66 254 0
-7 -66 -254 0
8 66 284 0
-8 -66 -284 0
1 67 75 0
-1 -67 -75 0
2 67 105 0
-2 -67 -105 0
3 67 135 0
-3 -67 -135 0
4 67 165 0
-4 -67 -165 0
5 67 195 0
-5 -67 -195 0
6 67 225 0
-6 -67 -225 0
7 67 255 0
-7 -67 -255 0
8 67 285 0
-8 -67 -285 0
1 68 76 0
-1 -68 -76 0
2 68 106 0
-2 -68 -106 0
3 68 136 0
-3 -68 -136 0
4 68 166 0
-4 -68 -166 0
5 68 196 0
-5 -68 -196 0
6 68 226 0
-6 -68 -226 0
7 68 256 0
-7 -68 -256 0
8 68 286 0
-8 -68 -286 0
1 69 77 0
-1 -69 -77 0
2 69 107 0
-2 -69 -107 0
3 69 137 0
-3 -69 -137 0
4 69 167 0
-4 -69 -167 0
5 69 197 0
-5 -69 -197 0
6 69 227 0
-6 -69 -227 0
7 69 257 0
-7 -69 -257 0
8 69 287 0
-8 -69 -287 0
1 70 78 0
-1 -70 -78 0
2 70 108 0
-2 -70 -108 0
3 70 138 0
-3 -70 -138 0
4 70 168 0
-4 -70 -168 0
5 70 198 0
-5 -70 -198 0
6 70 228 0
-6 -70 -228 0
7 70 258 0
-7 -70 -258 0
1 71 79 0
-1 -71 -79 0
2 71 109 0
-2 -71 -109 0
3 71 139 0
-3 -71 -139 0
4 71 169 0
-4 -71 -169 0
5 71 199 0
-5 -71 -199 0
6 71 229 0
-6 -71 -229 0
7 71 259 0
-7 -71 -259 0
1 72 80 0
-1 -72 -80 0
2 72 110 0
-2 -72 -110 0
3 72 140 0
-3 -72 -140 0
4 72 170 0
-4 -72 -170 0
5 72 200 0
-5 -72 -200 0
6 72 230 0
-6 -72 -230 0
7 72 260 0
-7 -72 -260 0
1 73 81 0
-1 -73 -81 0
2 73 111 0
-2 -73 -111 0
3 73 141 0
-3 -73 -141 0
4 73 171 0
-4 -73 -171 0
5 73 201 0
-5 -73 -201 0
6 73 231 0
-6 -73 -231 0
7 73 261 0
-7 -73 -261 0
1 74 82 0
-1 -74 -82 0
2 74 112 0
-2 -74 -112 0
3 74 142 0
-3 -74 -142 0
4 74 172 0
-4 -74 -172 0
5 74 202 0
-5 -74 -202 0
6 74 232 0
-6 -74 -232 0
7 74 262 0
-7 -74 -262 0
1 75 83 0
-1 -75 -83 0
2 75 113 0
-2 -75 -113 0
3 75 143 0
-3 -75 -143 0
4 75 173 0
-4 -75 -173 0
5 75 203 0
-5 -75 -203 0
6 75 233 0
-6 -75 -233 0
7 75 263 0
-7 -75 -263 0
1 76 84 0
-1 -76 -84 0
2 76 114 0
-2 -76 -114 0
3 76 144 0
-3 -76 -144 0
4 76 174 0
-4 -76 -174 0
5 76 204 0
-5 -76 -204 0
6 76 234 0
-6 -76 -234 0
7 76 264 0
-7 -76 -264 0
1 77 85 0
-1 -77 -85 0
2 77 115 0
-2 -77 -115 0
3 77 145 0
-3 -77 -145 0
4 77 175 0
-4 -77 -175 0
5 77 205 0
-5 -77 -205 0
6 77 235 0
-6 -77 -235 0
7 77 265 0
-7 -77 -265 0
1 78 86 0
-1 -78 -86 0
2 78 116 0
-2 -78 -116 0
3 78 146 0
-3 -78 -146 0
4 78 176 0
-4 -78 -176 0
5 78 206 0
-5 -78 -206 0
6 78 236 0
-6 -78 -236 0
7 78 266 0
-7 -78 -266 0
1 79 87 0
-1 -79 -87 0
2 79 117 0
-2 -79 -117 0
3 79 147 0
-3 -79 -147 0
4 79 177 0
-4 -79 -177 0
5 79 207 0
-5 -79 -207 0
6 79 237 0
-6 -79 -237 0
7 79 267 0
-7 -79 -267 0
1 80 88 0
-1 -80 -88 0
2 80 118 0
-2 -80 -118 0
3 80 148 0
-3 -80 -148 0
4 80 178 0
-4 -80 -178 0
5 80 208 0
-5 -80 -208 0
6 80 238 0
-6 -80 -238 0
7 80 268 0
-7 -80 -268 0
1 81 89 0
-1 -81 -89 0
2 81 119 0
-2 -81 -119 0
3 81 149 0
-3 -81 -149 0
4 81 179 0
-4 -81 -179 0
5 81 209 0
-5 -81 -209 0
6 81 239 0
-6 -81 -239 0
7 81 269 0
-7 -81 -269 0
1 82 90 0
-1 -82 -90 0
2 82 120 0
-2 -82 -120 0
3 82 150 0
-3 -82 -150 0
4 82 180 0
-4 -82 -180 0
5 82 210 0
-5 -82 -210 0
6 82 240 0
-6 -82 -240 0
7 82 270 0
-7 -82 -270 0
1 83 91 0
-1 -83 -91 0
2 83 121 0
-2 -83 -121 0
3 83 151 0
-3 -83 -151 0
4 83 181 0
-4 -83 -181 0
5 83 211 0
-5 -83 -211 0
6 83 241 0
-6 -83 -241 0
7 83 271 0
-7 -83 -271 0
1 84 92 0
-1 -84 -92 0
2 84 122 0
-2 -84 -122 0
3 84 152 0
-3 -84 -152 0
4 84 182 0
-4 -84 -182 0
5 84 212 0
-5 -84 -212 0
6 84 242 0
-6 -84 -242 0
7 84 272 0
-7 -84 -272 0
1 85 93 0
-1 -85 -93 0
2 85 123 0
-2 -85 -123 0
3 85 153 0
-3 -85 -153 0
4 85 183 0
-4 -85 -183 0
5 85 213 0
-5 -85 -213 0
6 85 243 0
-6 -85 -243 0
7 85 273 0
-7 -85 -273 0
1 86 94 0
-1 -86 -94 0
2 86 124 0
-2 -86 -124 0
3 86 154 0
-3 -86 -154 0
4 86 184 0
-4 -86 -184 0
5 86 214 0
-5 -86 -214 0
6 86 244 0
-6 -86 -244 0
7 86 274 0
-7 -86 -274 0
1 87 95 0
-1 -87 -95 0
2 87 125 0
-2 -87 -125 0
3 87 155 0
-3 -87 -155 0
4 87 185 0
-4 -87 -185 0
5 87 215 0
-5 -87 -215 0
6 87 245 0
-6 -87 -245 0
7 87 275 0
-7 -87 -275 0
1 88 96 0
-1 -88 -96 0
2 88 126 0
-2 -88 -126 0
3 88 156 0
-3 -88 -156 0
4 88 186 0
-4 -88 -186 0
5 88 216 0
-5 -88 -216 0
6 88 246 0
-6 -88 -246 0
7 88 276 0
-7 -88 -276 0
1 89 97 0
-1 -89 -97 0
2 89 127 0
-2 -89 -127 0
3 89 157 0
-3 -89 -157 0
4 89 187 0
-4 -89 -187 0
5 89 217 0
-5 -89 -217 0
6 89 247 0
-6 -89 -247 0
7 89 277 0
-7 -89 -277 0
1 90 98 0
-1 -90 -98 0
2 90 128 0
-2 -90 -128 0
3 90 158 0
-3 -90 -158 0
4 90 188 0
-4 -90 -188 0
5 90 218 0
-5 -90 -218 0
6 90 248 0
-6 -90 -248 0
7 90 278 0
-7 -90 -278 0
1 91 99 0
-1 -91 -99 0
2 91 129 0
-2 -91 -129 0
3 91 159 0
-3 -91 -159 0
4 91 189 0
-4 -91 -189 0
5 91 219 0
-5 -91 -219 0
6 91 249 0
-6 -91 -249 0
7 91 279 0
-7 -91 -279 0
1 92 100 0
-1 -92 -100 0
2 92 130 0
-2 -92 -130 0
3 92 160 0
-3 -92 -160 0
4 92 190 0
-4 -92 -190 0
5 92 220 0
-5 -92 -220 0
6 92 250 0
-6 -92 -250 0
7 92 280 0
-7 -92 -280 0
1 93 101 0
-1 -93 -101 0
2 93 131 0
-2 -93 -131 0
3 93 161 0
-3 -93 -161 0
4 93 191 0
-4 -93 -191 0
5 93 221 0
-5 -93 -221 0
6 93 251 0
-6 -93 -251 0
7 93 281 0
-7 -93 -281 0
1 94 102 0
-1 -94 -102 0
2 94 132 0
-2 -94 -132 0
3 94 162 0
-3 -94 -162 0
4 94 192 0
-4 -94 -192 0
5 94 222 0
-5 -94 -222 0
6 94 252 0
-6 -94 -252 0
7 94 282 0
-7 -94 -282 0
1 95 103 0
-1 -95 -103 0
2 95 133 0
-2 -95 -133 0
3 95 163 0
-3 -95 -163 0
4 95 193 0
-4 -95 -193 0
5 95 223 0
-5 -95 -223 0
6 95 253 0
-6 -95 -253 0
7 95 283 0
-7 -95 -283 0
1 96 104 0
-1 -96 -104 0
2 96 134 0
-2 -96 -134 0
3 96 164 0
-3 -96 -164 0
4 96 194 0
-4 -96 -194 0
5 96 224 0
-5 -96 -224 0
6 96 254 0
-6 -96 -254 0
7 96 284 0
-7 -96 -284 0
1 97 105 0
-1 -97 -105 0
2 97 135 0
-2 -97 -135 0
3 97 165 0
-3 -97 -165 0
4 97 195 0
-4 -97 -195 0
5 97 225 0
-5 -97 -225 0
6 97 255 0
-6 -97 -255 0
7 97 285 0
-7 -97 -285 0
1 98 106 0
-1 -98 -106 0
2 98 136 0
-2 -98 -136 0
3 98 166 0
-3 -98 -166 0
4 98 196 0
-4 -98 -196 0
5 98 226 0
-5 -98 -226 0
6 98 256 0
-6 -98 -256 0
7 98 286 0
-7 -98 -286 0
1 99 107 0
-1 -99 -107 0
2 99 137 0
-2 -99 -137 0
3 99 167 0
-3 -99 -167 0
4 99 197 0
-4 -99 -197 0
5 99 227 0
-5 -99 -227 0
6 99 257 0
-6 -99 -257 0
7 99 287 0
-7 -99 -287 0
1 100 108 0
-1 -100 -108 0
2 100 138 0
-2 -100 -138 0
3 100 168 0
-3 -100 -168 0
4 100 198 0
-4 -100 -198 0
5 100 228 0
-5 -100 -228 0
6 100 258 0
-6 -100 -258 0
1 101 109 0
-1 -101 -109 0
2 101 139 0
-2 -101 -139 0
3 101 169 0
-3 -101 -169 0
4 101 199 0
-4 -101 -199 0
5 101 229 0
-5 -101 -229 0
6 101 259 0
-6 -101 -259 0
1 102 110 0
-1 -102 -110 0
2 102 140 0
-2 -102 -140 0
3 102 170 0
-3 -102 -170 0
4 102 200 0
-4 -102 -200 0
5 102 230 0
-5 -102 -230 0
6 102 260 0
-6 -102 -260 0
1 103 111 0
-1 -103 -111 0
2 103 141 0
-2 -103 -141 0
3 103 171 0
-3 -103 -171 0
4 103 201 0
-4 -103 -201 0
5 103 231 0
-5 -103 -231 0
6 103 261 0
-6 -103 -261 0
1 104 112 0
-1 -104 -112 0
2 104 142 0
-2 -104 -142 0
3 104 172 0
-3 -104 -172 0
4 104 202 0
-4 -104 -202 0
5 104 232 0
-5 -104 -232 0
6 104 262 0
-6 -104 -262 0
1 105 113 0
-1 -105 -113 0
2 105 143 0
-2 -105 -143 0
3 105 173 0
-3 -105 -173 0
4 105 203 0
-4 -105 -203 0
5 105 233 0
-5 -105 -233 0
6 105 263 0
-6 -105 -263 0
1 106 114 0
-1 -106 -114 0
2 106 144 0
-2 -106 -144 0
3 106 174 0
-3 -106 -174 0
4 106 204 0
-4 -106 -204 0
5 106 234 0
-5 -106 -234 0
6 106 264 0
-6 -106 -264 0
1 107 115 0
-1 -107 -115 0
2 107 145 0
-2 -107 -145 0
3 107 175 0
-3 -107 -175 0
4 107 205 0
-4 -107 -205 0
5 107 235 0
-5 -107 -235 0
6 107 265 0
-6 -107 -265 0
1 108 116 0
-1 -108 -116 0
2 108 146 0
-2 -108 -146 0
3 108 176 0
-3 -108 -176 0
4 108 206 0
-4 -108 -206 0
5 108 236 0
-5 -108 -236 0
6 108 266 0
-6 -108 -266 0
1 109 117 0
-1 -109 -117 0
2 109 147 0
-2 -109 -147 0
3 109 177 0
-3 -109 -177 0
4 109 207 0
-4 -109 -207 0
5 109 237 0
-5 -109 -237 0
6 109 267 0
-6 -109 -267 0
1 110 118 0
-1 -110 -118 0
2 110 148 0
-2 -110 -148 0
3 110 178 0
-3 -110 -178 0
4 110 208 0
-4 -110 -208 0
5 110 238 0
-5 -110 -238 0
6 110 268 0
-6 -110 -268 0
1 111 119 0
-1 -111 -119 0
2 111 149 0
-2 -111 -149 0
3 111 179 0
-3 -111 -179 0
4 111 209 0
-4 -111 -209 0
5 111 239 0
-5 -111 -239 0
6 111 269 0
-6 -111 -269 0
1 112 120 0
-1 -112 -120 0
2 112 150 0
-2 -112 -150 0
3 112 180 0
-3 -112 -180 0
4 112 210 0
-4 -112 -210 0
5 112 240 0
-5 -112 -240 0
6 112 270 0
-6 -112 -270 0
1 113 121 0
-1 -113 -121 0
2 113 151 0
-2 -113 -151 0
3 113 181 0
-3 -113 -181 0
4 113 211 0
-4 -113 -211 0
5 113 241 0
-5 -113 -241 0
6 113 271 0
-6 -113 -271 0
1 114 122 0
-1 -114 -122 0
2 114 152 0
-2 -114 -152 0
3 114 182 0
-3 -114 -182 0
4 114 212 0
-4 -114 -212 0
5 114 242 0
-5 -114 -242 0
6 114 272 0
-6 -114 -272 0
1 115 123 0
-1 -115 -123 0
2 115 153 0
-2 -115 -153 0
3 115 183 0
-3 -115 -183 0
4 115 213 0
-4 -115 -213 0
5 115 243 0
-5 -115 -243 0
6 115 273 0
-6 -115 -273 0
1 116 124 0
-1 -116 -124 0
2 116 154 0
-2 -116 -154 0
3 116 184 0
-3 -116 -184 0
4 116 214 0
-4 -116 -214 0
5 116 244 0
-5 -116 -244 0
6 116 274 0
-6 -116 -274 0
1 117 125 0
-1 -117 -125 0
2 117 155 0
-2 -117 -155 0
3 117 185 0
-3 -117 -185 0
4 117 215 0
-4 -117 -215 0
5 117 245 0
-5 -117 -245 0
6 117 275 0
-6 -117 -275 0
1 118 126 0
-1 -118 -126 0
2 118 156 0
-2 -118 -156 0
3 118 186 0
-3 -118 -186 0
4 118 216 0
-4 -118 -216 0
5 118 246 0
-5 -118 -246 0
6 118 276 0
-6 -118 -276 0
1 119 127 0
-1 -119 -127 0
2 119 157 0
-2 -119 -157 0
3 119 187 0
-3 -119 -187 0
4 119 217 0
-4 -119 -217 0
5 119 247 0
-5 -119 -247 0
6 119 277 0
-6 -119 -277 0
1 120 128 0
-1 -120 -128 0
2 120 158 0
-2 -120 -158 0
3 120 188 0
-3 -120 -188 0
4 120 218 0
-4 -120 -218 0
5 120 248 0
-5 -120 -248 0
6 120 278 0
-6 -120 -278 0
1 121 129 0
-1 -121 -129 0
2 121 159 0
-2 -121 -159 0
3 121 189 0
-3 -121 -189 0
4 121 219 0
-4 -121 -219 0
5 121 249 0
-5 -121 -249 0
6 121 279 0
-6 -121 -279 0
1 122 130 0
-1 -122 -130 0
2 122 160 0
-2 -122 -160 0
3 122 190 0
-3 -122 -190 0
4 122 220 0
-4 -122 -220 0
5 122 250 0
-5 -122 -250 0
6 122 280 0
-6 -122 -280 0
1 123 131 0
-1 -123 -131 0
2 123 161 0
-2 -123 -161 0
3 123 191 0
-3 -123 -191 0
4 123 221 0
-4 -123 -221 0
5 123 251 0
-5 -123 -251 0
6 123 281 0
-6 -123 -281 0
1 124 132 0
-1 -124 -132 0
2 124 162 0
-2 -124 -162 0
3 124 192 0
-3 -124 -192 0
4 124 222 0
-4 -124 -222 0
5 124 252 0
-5 -124 -252 0
6 124 282 0
-6 -124 -282 0
1 125 133 0
-1 -125 -133 0
2 125 163 0
-2 -125 -163 0
3 125 193 0
-3 -125 -193 0
4 125 223 0
-4 -125 -223 0
5 125 253 0
-5 -125 -253 0
6 125 283 0
-6 -125 -283 0
1 126 134 0
-1 -126 -134 0
2 126 164 0
-2 -126 -164 0
3 126 194 0
-3 -126 -194 0
4 126 224 0
-4 -126 -224 0
5 126 254 0
-5 -126 -254 0
6 126 284 0
-6 -126 -284 0
1 127 135 0
-1 -127 -135 0
2 127 165 0
-2 -127 -165 0
3 127 195 0
-3 -127 -195 0
4 127 225 0
-4 -127 -225 0
5 127 255 0
-5 -127 -255 0
6 127 285 0
-6 -127 -285 0
1 128 136 0
-1 -128 -136 0
2 128 166 0
-2 -128 -166 0
3 128 196 0
-3 -128 -196 0
4 128 226 0
-4 -128 -226 0
5 128 256 0
-5 -128 -256 0
6 128 286 0
-6 -128 -286 0
1 129 137 0
-1 -129 -137 0
2 129 167 0
-2 -129 -167 0
3 129 197 0
-3 -129 -197 0
4 129 227 0
-4 -129 -227 0
5 129 257 0
-5 -129 -257 0
6 129 287 0
-6 -129 -287 0
1 130 138 0
-1 -130 -138 0
2 130 168 0
-2 -130 -168 0
3 130 198 0
-3 -130 -198 0
4 130 228 0
-4 -130 -228 0
5 130 258 0
-5 -130 -258 0
1 131 139 0
-1 -131 -139 0
2 131 169 0
-2 -131 -169 0
3 131 199 0
-3 -131 -199 0
4 131 229 0
-4 -131 -229 0
5 131 259 0
-5 -131 -259 0
1 132 140 0
-1 -132 -140 0
2 132 170 0
-2 -132 -170 0
3 132 200 0
-3 -132 -200 0
4 132 230 0
-4 -132 -230 0
5 132 260 0
-5 -132 -260 0
1 133 141 0
-1 -133 -141 0
2 133 171 0
-2 -133 -171 0
3 133 201 0
-3 -133 -201 0
4 133 231 0
-4 -133 -231 0
5 133 261 0
-5 -133 -261 0
1 134 142 0
-1 -134 -142 0
2 134 172 0
-2 -134 -172 0
3 134 202 0
-3 -134 -202 0
4 134 232 0
-4 -134 -232 0
5 134 262 0
-5 -134 -262 0
1 135 143 0
-1 -135 -143 0
2 135 173 0
-2 -135 -173 0
3 135 203 0
-3 -135 -203 0
4 135 233 0
-4 -135 -233 0
5 135 263 0
-5 -135 -263 0
1 136 144 0
-1 -136 -144 0
2 136 174 0
-2 -136 -174 0
3 136 204 0
-3 -136 -204 0
4 136 234 0
-4 -136 -234 0
5 136 264 0
-5 -136 -264 0
1 137 145 0
-1 -137 -145 0
2 137 175 0
-2 -137 -175 0
3 137 205 0
-3 -137 -205 0
4 137 235 0
-4 -137 -235 0
5 137 265 0
-5 -137 -265 0
1 138 146 0
-1 -138 -146 0
2 138 176 0
-2 -138 -176 0
3 138 206 0
-3 -138 -206 0
4 138 236 0
-4 -138 -236 0
5 138 266 0
-5 -138 -266 0
1 139 147 0
-1 -139 -147 0
2 139 177 0
-2 -139 -177 0
3 139 207 0
-3 -139 -207 0
4 139 237 0
-4 -139 -237 0
5 139 267 0
-5 -139 -267 0
1 140 148 0
-1 -140 -148 0
2 140 178 0
-2 -140 -178 0
3 140 208 0
-3 -140 -208 0
4 140 238 0
-4 -140 -238 0
5 140 268 0
-5 -140 -268 0
1 141 149 0
-1 -141 -149 0
2 141 179 0
-2 -141 -179 0
3 141 209 0
-3 -141 -209 0
4 141 239 0
-4 -141 -239 0
5 141 269 0
-5 -141 -269 0
1 142 150 0
-1 -142 -150 0
2 142 180 0
-2 -142 -180 0
3 142 210 0
-3 -142 -210 0
4 142 240 0
-4 -142 -240 0
5 142 270 0
-5 -142 -270 0
1 143 151 0
-1 -143 -151 0
2 143 181 0
-2 -143 -181 0
3 143 211 0
-3 -143 -211 0
4 143 241 0
-4 -143 -241 0
5 143 271 0
-5 -143 -271 0
1 144 152 0
-1 -144 -152 0
2 144 182 0
-2 -144 -182 0
3 144 212 0
-3 -144 -212 0
4 144 242 0
-4 -144 -242 0
5 144 272 0
-5 -144 -272 0
1 145 153 0
-1 -145 -153 0
2 145 183 0
-2 -145 -183 0
3 145 213 0
-3 -145 -213 0
4 145 243 0
-4 -145 -243 0
5 145 273 0
-5 -145 -273 0
1 146 154 0
-1 -146 -154 0
2 146 184 0
-2 -146 -184 0
3 146 214 0
-3 -146 -214 0
4 146 244 0
-4 -146 -244 0
5 146 274 0
-5 -146 -274 0
1 147 155 0
-1 -147 -155 0
2 147 185 0
-2 -147 -185 0
3 147 215 0
-3 -147 -215 0
4 147 245 0
-4 -147 -245 0
5 147 275 0
-5 -147 -275 0
1 148 156 0
-1 -148 -156 0
2 148 186 0
-2 -148 -186 0
3 148 216 0
-3 -148 -216 0
4 148 246 0
-4 -148 -246 0
5 148 276 0
-5 -148 -276 0
1 149 157 0
-1 -149 -157 0
2 149 187 0
-2 -149 -187 0
3 149 217 0
-3 -149 -217 0
4 149 247 0
-4 -149 -247 0
5 149 277 0
-5 -149 -277 0
1 150 158 0
-1 -150 -158 0
2 150 188 0
-2 -150 -188 0
3 150 218 0
-3 -150 -218 0
4 150 248 0
-4 -150 -248 0
5 150 278 0
-5 -150 -278 0
1 151 159 0
-1 -151 -159 0
2 151 189 0
-2 -151 -189 0
3 151 219 0
-3 -151 -219 0
4 151 249 0
-4 -151 -249 0
5 151 279 0
-5 -151 -279 0
1 152 160 0
-1 -152 -160 0
2 152 190 0
-2 -152 -190 0
3 152 220 0
-3 -152 -220 0
4 152 250 0
-4 -152 -250 0
5 152 280 0
-5 -152 -280 0
1 153 161 0
-1 -153 -161 0
2 153 191 0
-2 -153 -191 0
3 153 221 0
-3 -153 -221 0
4 153 251 0
-4 -153 -251 0
5 153 281 0
-5 -153 -281 0
1 154 162 0
-1 -154 -162 0
2 154 192 0
-2 -154 -192 0
3 154 222 0
-3 -154 -222 0
4 154 252 0
-4 -154 -252 0
5 154 282 0
-5 -154 -282 0
1 155 163 0
-1 -155 -163 0
2 155 193 0
-2 -155 -193 0
3 155 223 0
-3 -155 -223 0
4 155 253 0
-4 -155 -253 0
5 155 283 0
-5 -155 -283 0
1 156 164 0
-1 -156 -164 0
2 156 194 0
-2 -156 -194 0
3 156 224 0
-3 -156 -224 0
4 156 254 0
-4 -156 -254 0
5 156 284 0
-5 -156 -284 0
1 157 165 0
-1 -157 -165 0
2 157 195 0
-2 -157 -195 0
3 157 225 0
-3 -157 -225 0
4 157 255 0
-4 -157 -255 0
5 157 285 0
-5 -157 -285 0
1 158 166 0
-1 -158 -166 0
2 158 196 0
-2 -158 -196 0
3 158 226 0
-3 -158 -226 0
4 158 256 0
-4 -158 -256 0
5 158 286 0
-5 -158 -286 0
1 159 167 0
-1 -159 -167 0
2 159 197 0
-2 -159 -197 0
3 159 227 0
-3 -159 -227 0
4 159 257 0
-4 -159 -257 0
5 159 287 0
-5 -159 -287 0
1 160 168 0
-1 -160 -168 0
2 160 198 0
-2 -160 -198 0
3 160 228 0
-3 -160 -228 0
4 160 258 0
-4 -160 -258 0
1 161 169 0
-1 -161 -169 0
2 161 199 0
-2 -161 -199 0
3 161 229 0
-3 -161 -229 0
4 161 259 0
-4 -161 -259 0
1 162 170 0
-1 -162 -170 0
2 162 200 0
-2 -162 -200 0
3 162 230 0
-3 -162 -230 0
4 162 260 0
-4 -162 -260 0
1 163 171 0
-1 -163 -171 0
2 163 201 0
-2 -163 -201 0
3 163 231 0
-3 -163 -231 0
4 163 261 0
-4 -163 -261 0
1 164 172 0
-1 -164 -172 0
2 164 202 0
-2 -164 -202 0
3 164 232 0
-3 -164 -232 0
4 164 262 0
-4 -164 -262 0
1 165 173 0
-1 -165 -173 0
2 165 203 0
-2 -165 -203 0
3 165 233 0
-3 -165 -233 0
4 165 263 0
-4 -165 -263 0
1 166 174 0
-1 -166 -174 0
2 166 204 0
-2 -166 -204 0
3 166 234 0
-3 -166 -234 0
4 166 264 0
-4 -166 -264 0
1 167 175 0
-1 -167 -175 0
2 167 205 0
-2 -167 -205 0
3 167 235 0
-3 -167 -235 0
4 167 265 0
-4 -167 -265 0
1 168 176 0
-1 -168 -176 0
2 168 206 0
-2 -168 -206 0
3 168 236 0
-3 -168 -236 0
4 168 266 0
-4 -168 -266 0
1 169 177 0
-1 -169 -177 0
2 169 207 0
-2 -169 -207 0
3 169 237 0
-3 -169 -237 0
4 169 267 0
-4 -169 -267 0
1 170 178 0
-1 -170 -178 0
2 170 208 0
-2 -170 -208 0
3 170 238 0
-3 -170 -238 0
4 170 268 0
-4 -170 -268 0
1 171 179 0
-1 -171 -179 0
2 171 209 0
-2 -171 -209 0
3 171 239 0
-3 -171 -239 0
4 171 269 0
-4 -171 -269 0
1 172 180 0
-1 -172 -180 0
2 172 210 0
-2 -172 -210 0
3 172 240 0
-3 -172 -240 0
4 172 270 0
-4 -172 -270 0
1 173 181 0
-1 -173 -181 0
2 173 211 0
-2 -173 -211 0
3 173 241 0
-3 -173 -241 0
4 173 271 0
-4 -173 -271 0
1 174 182 0
-1 -174 -182 0
2 174 212 0
-2 -174 -212 0
3 174 242 0
-3 -174 -242 0
4 174 272 0
-4 -174 -272 0
1 175 183 0
-1 -175 -183 0
2 175 213 0
-2 -175 -213 0
3 175 243 0
-3 -175 -243 0
4 175 273 0
-4 -175 -273 0
1 176 184 0
-1 -176 -184 0
2 176 214 0
-2 -176 -214 0
3 176 244 0
-3 -176 -244 0
4 176 274 0
-4 -176 -274 0
1 177 185 0
-1 -177 -185 0
2 177 215 0
-2 -177 -215 0
3 177 245 0
-3 -177 -245 0
4 177 275 0
-4 -177 -275 0
1 178 186 0
-1 -178 -186 0
2 178 216 0
-2 -178 -216 0
3 178 246 0
-3 -178 -246 0
4 178 276 0
-4 -178 -276 0
1 179 187 0
-1 -179 -187 0
2 179 217 0
-2 -179 -217 0
3 179 247 0
-3 -179 -247 0
4 179 277 0
-4 -179 -277 0
1 180 188 0
-1 -180 -188 0
2 180 218 0
-2 -180 -218 0
3 180 248 0
-3 -180 -248 0
4 180 278 0
-4 -180 -278 0
1 181 189 0
-1 -181 -189 0
2 181 219 0
-2 -181 -219 0
3 181 249 0
-3 -181 -249 0
4 181 279 0
-4 -181 -279 0
1 182 190 0
-1 -182 -190 0
2 182 220 0
-2 -182 -220 0
3 182 250 0
-3 -182 -250 0
4 182 280 0
-4 -182 -280 0
1 183 191 0
-1 -183 -191 0
2 183 221 0
-2 -183 -221 0
3 183 251 0
-3 -183 -251 0
4 183 281 0
-4 -183 -281 0
1 184 192 0
-1 -184 -192 0
2 184 222 0
-2 -184 -222 0
3 184 252 0
-3 -184 -252 0
4 184 282 0
-4 -184 -282 0
1 185 193 0
-1 -185 -193 0
2 185 223 0
-2 -185 -223 0
3 185 253 0
-3 -185 -253 0
4 185 283 0
-4 -185 -283 0
1 186 194 0
-1 -186 -194 0
2 186 224 0
-2 -186 -224 0
3 186 254 0
-3 -186 -254 0
4 186 284 0
-4 -186 -284 0
1 187 195 0
-1 -187 -195 0
2 187 225 0
-2 -187 -225 0
3 187 255 0
-3 -187 -255 0
4 187 285 0
-4 -187 -285 0
1 188 196 0
-1 -188 -196 0
2 188 226 0
-2 -188 -226 0
3 188 256 0
-3 -188 -256 0
4 188 286 0
-4 -188 -286 0
1 189 197 0
-1 -189 -197 0
2 189 227 0
-2 -189 -227 0
3 189 257 0
-3 -189 -257 0
4 189 287 0
-4 -189 -287 0
1 190 198 0
-1 -190 -198 0
2 190 228 0
-2 -190 -228 0
3 190 258 0
-3 -190 -258 0
1 191 199 0
-1 -191 -199 0
2 191 229 0
-2 -191 -229 0
3 191 259 0
-3 -191 -259 0
1 192 200 0
-1 -192 -200 0
2 192 230 0
-2 -192 -230 0
3 192 260 0
-3 -192 -260 0
1 193 201 0
-1 -193 -201 0
2 193 231 0
-2 -193 -231 0
3 193 261 0
-3 -193 -261 0
1 194 202 0
-1 -194 -202 0
2 194 232 0
-2 -194 -232 0
3 194 262 0
-3 -194 -262 0
1 195 203 0
-1 -195 -203 0
2 195 233 0
-2 -195 -233 0
3 195 263 0
-3 -195 -263 0
1 196 204 0
-1 -196 -204 0
2 196 234 0
-2 -196 -234 0
3 196 264 0
-3 -196 -264 0
1 197 205 0
-1 -197 -205 0
2 197 235 0
-2 -197 -235 0
3 197 265 0
-3 -197 -265 0
1 198 206 0
-1 -198 -206 0
2 198 236 0
-2 -198 -236 0
3 198 266 0
-3 -198 -266 0
1 199 207 0
-1 -199 -207 0
2 199 237 0
-2 -199 -237 0
3 199 267 0
-3 -199 -267 0
1 200 208 0
-1 -200 -208 0
2 200 238 0
-2 -200 -238 0
3 200 268 0
-3 -200 -268 0
1 201 209 0
-1 -201 -209 0
2 201 239 0
-2 -201 -239 0
3 201 269 0
-3 -201 -269 0
1 202 210 0
-1 -202 -210 0
2 202 240 0
-2 -202 -240 0
3 202 270 0
-3 -202 -270 0
1 203 211 0
-1 -203 -211 0
2 203 241 0
-2 -203 -241 0
3 203 271 0
-3 -203 -271 0
1 204 212 0
-1 -204 -212 0
2 204 242 0
-2 -204 -242 0
3 204 272 0
-3 -204 -272 0
1 205 213 0
-1 -205 -213 0
2 205 243 0
-2 -205 -243 0
3 205 273 0
-3 -205 -273 0
1 206 214 0
-1 -206 -214 0
2 206 244 0
-2 -206 -244 0
3 206 274 0
-3 -206 -274 0
1 207 215 0
-1 -207 -215 0
2 207 245 0
-2 -207 -245 0
3 207 275 0
-3 -207 -275 0
1 208 216 0
-1 -208 -216 0
2 208 246 0
-2 -208 -246 0
3 208 276 0
-3 -208 -276 0
1 209 217 0
-1 -209 -217 0
2 209 247 0
-2 -209 -247 0
3 209 277 0
-3 -209 -277 0
1 210 218 0
-1 -210 -218 0
2 210 248 0
-2 -210 -248 0
3 210 278 0
-3 -210 -278 0
1 211 219 0
-1 -211 -219 0
2 211 249 0
-2 -211 -249 0
3 211 279 0
-3 -211 -279 0
1 212 220 0
-1 -212 -220 0
2 212 250 0
-2 -212 -250 0
3 212 280 0
-3 -212 -280 0
1 213 221 0
-1 -213 -221 0
2 213 251 0
-2 -213 -251 0
3 213 281 0
-3 -213 -281 0
1 214 222 0
-1 -214 -222 0
2 214 252 0
-2 -214 -252 0
3 214 282 0
-3 -214 -282 0
1 215 223 0
-1 -215 -223 0
2 215 253 0
-2 -215 -253 0
3 215 283 0
-3 -215 -283 0
1 216 224 0
-1 -216 -224 0
2 216 254 0
-2 -216 -254 0
3 216 284 0
-3 -216 -284 0
1 217 225 0
-1 -217 -225 0
2 217 255 0
-2 -217 -255 0
3 217 285 0
-3 -217 -285 0
1 218 226 0
-1 -218 -226 0
2 218 256 0
-2 -218 -256 0
3 218 286 0
-3 -218 -286 0
1 219 227 0
-1 -219 -227 0
2 219 257 0
-2 -219 -257 0
3 219 287 0
-3 -219 -287 0
1 220 228 0
-1 -220 -228 0
2 220 258 0
-2 -220 -258 0
1 221 229 0
-1 -221 -229 0
2 221 259 0
-2 -221 -259 0
1 222 230 0
-1 -222 -230 0
2 222 260 0
-2 -222 -260 0
1 223 231 0
-1 -223 -231 0
2 223 261 0
-2 -223 -261 0
1 224 232 0
-1 -224 -232 0
2 224 262 0
-2 -224 -262 0
1 225 233 0
-1 -225 -233 0
2 225 263 0
-2 -225 -263 0
1 226 234 0
-1 -226 -234 0
2 226 264 0
-2 -226 -264 0
1 227 235 0
-1 -227 -235 0
2 227 265 0
-2 -227 -265 0
1 228 236 0
-1 -228 -236 0
2 228 266 0
-2 -228 -266 0
1 229 237 0
-1 -229 -237 0
2 229 267 0
-2 -229 -267 0
1 230 238 0
-1 -230 -238 0
2 230 268 0
-2 -230 -268 0
1 231 239 0
-1 -231 -239 0
2 231 269 0
-2 -231 -269 0
1 232 240 0
-1 -232 -240 0
2 232 270 0
-2 -232 -270 0
1 233 241 0
-1 -233 -241 0
2 233 271 0
-2 -233 -271 0
1 234 242 0
-1 -234 -242 0
2 234 272 0
-2 -234 -272 0
1 235 243 0
-1 -235 -243 0
2 235 273 0
-2 -235 -273 0
1 236 244 0
-1 -236 -244 0
2 236 274 0
-2 -236 -274 0
1 237 245 0
-1 -237 -245 0
2 237 275 0
-2 -237 -275 0
1 238 246 0
-1 -238 -246 0
2 238 276 0
-2 -238 -276 0
1 239 247 0
-1 -239 -247 0
2 239 277 0
-2 -239 -277 0
1 240 248 0
-1 -240 -248 0
2 240 278 0
-2 -240 -278 0
1 241 249 0
-1 -241 -249 0
2 241 279 0
-2 -241 -279 0
1 242 250 0
-1 -242 -250 0
2 242 280 0
-2 -242 -280 0
1 243 251 0
-1 -243 -251 0
2 243 281 0
-2 -243 -281 0
1 244 252 0
-1 -244 -252 0
2 244 282 0
-2 -244 -282 0
1 245 253 0
-1 -245 -253 0
2 245 283 0
-2 -245 -283 0
1 246 254 0
-1 -246 -254 0
2 246 284 0
-2 -246 -284 0
1 247 255 0
-1 -247 -255 0
2 247 285 0
-2 -247 -285 0
1 248 256 0
-1 -248 -256 0
2 248 286 0
-2 -248 -286 0
1 249 257 0
-1 -249 -257 0
2 249 287 0
-2 -249 -287 0
1 250 258 0
-1 -250 -258 0
1 251 259 0
-1 -251 -259 0
1 252 260 0
-1 -252 -260 0
1 253 261 0
-1 -253 -261 0
1 254 262 0
-1 -254 -262 0
1 255 263 0
-1 -255 -263 0
1 256 264 0
-1 -256 -264 0
1 257 265 0
-1 -257 -265 0
1 258 266 0
-1 -258 -266 0
1 259 267 0
-1 -259 -267 0
1 260 268 0
-1 -260 -268 0
1 261 269 0
-1 -261 -269 0
1 262 270 0
-1 -262 -270 0
1 263 271 0
-1 -263 -271 0
1 264 272 0
-1 -264 -272 0
1 265 273 0
-1 -265 -273 0
1 266 274 0
-1 -266 -274 0
1 267 275 0
-1 -267 -275 0
1 268 276 0
-1 -268 -276 0
1 269 277 0
-1 -269 -277 0
1 270 278 0
-1 -270 -278 0
1 271 279 0
-1 -271 -279 0
1 272 280 0
-1 -272 -280 0
1 273 281 0
-1 -273 -281 0
1 274 282 0
-1 -274 -282 0
1 275 283 0
-1 -275 -283 0
1 276 284 0
-1 -276 -284 0
1 277 285 0
-1 -277 -285 0
1 278 286 0
-1 -278 -286 0
1 279 287 0
-1 -279 -287 0
