certificates/rado_a30_c22_N287.drat
-279 -287 0
d -279 -1 -287 0
31 39 279 0
-9 -287 0
4 245 9 0
-30 -287 0
-287 0
9 0
-1 0
-257 0
279 0
265 0
249 0
-31 0
-17 0
39 0
23 0
25 0
-271 0
-273 0
263 0
281 0
-15 0
-33 0
7 0
41 0
-195 0
-255 0
-197 0
-211 0
-213 0
-227 0
-229 0
-61 0
-75 0
-77 0
-91 0
-93 0
203 0
187 0
247 0
205 0
189 0
219 0
221 0
235 0
237 0
69 0
53 0
83 0
67 0
85 0
99 0
101 0
-59 0
-47 0
-49 0
-241 0
51 0
55 0
57 0
233 0
-239 0
-243 0
-245 0
-45 0
231 0
251 0
253 0
37 0
-43 0
-3 0
-63 0
-5 0
-65 0
-225 0
-285 0
111 0
171 0
35 0
2 0
11 0
71 0
217 0
131 0
127 0
129 0
143 0
145 0
159 0
161 0
115 0
117 0
173 0
175 0
177 0
113 0
13 0
73 0
133 0
191 0
97 0
157 0
193 0
277 0
-149 0
0
